p cnf 100 30
x 3 5 6 8 10 11 -13 14 15 20 23 25 28 32 33 35 40 41 42 43 46 47 56 57 58 60 -62 -64 65 67 69 70 71 72 -76 78 -81 -85 87 88 -89 -90 92 97 -99 -100 0
x 1 3 4 6 -7 9 11 12 14 -17 -22 -29 -32 -35 36 37 -38 43 46 49 -52 53 -54 56 57 -59 -62 -64 -66 -67 -69 -71 -77 87 89 90 91 -97 0
x 1 5 -9 10 11 16 -17 -18 -20 -24 25 -27 -33 -36 -40 41 -42 45 46 -50 51 -52 53 54 56 60 -62 -64 65 66 -69 -72 73 -76 78 -80 -83 84 -85 90 91 92 -93 -94 95 96 97 98 0
x -1 -2 -5 6 9 10 11 12 -17 -18 -19 -20 22 -25 -27 29 33 35 36 37 38 -39 -40 -43 -44 50 51 -54 55 62 -63 -65 66 -70 71 72 73 -78 -79 -80 84 93 -95 -99 0
x 1 4 -6 -8 -10 -11 -12 -13 16 -18 21 24 37 38 -46 47 49 51 -52 -56 -60 62 64 70 72 -74 -75 76 -81 -82 -84 -90 -92 93 96 99 -100 0
x 1 -2 6 -9 -11 -13 -15 -17 -19 20 21 22 -27 -32 35 36 -39 -40 -43 44 -46 47 51 -55 57 58 -61 -63 -66 67 -69 70 73 75 -76 79 -81 83 85 -86 88 -89 96 0
x -2 6 10 -11 12 13 14 -18 -19 21 -23 -24 25 29 33 34 35 -40 -45 -47 -48 50 -58 59 64 66 -67 72 73 76 -78 -80 82 -84 -85 -90 -92 -95 -96 97 -99 100 0
x -3 -4 7 -8 10 11 13 -15 18 20 21 22 -26 28 -30 -31 32 -33 -34 -38 39 -42 43 44 46 -48 49 50 -51 52 -54 -57 58 60 61 64 -66 70 71 73 -74 75 -79 80 81 -82 85 -86 -88 -89 -90 -94 -95 -96 -98 -99 -100 0
x -1 -3 -5 -7 8 9 10 -11 -12 13 -17 -18 20 21 23 -24 -32 33 35 38 39 41 -43 45 46 47 -49 51 -52 55 56 -57 -60 61 62 63 64 68 -70 -72 73 75 76 -80 81 -83 -89 -93 -94 -95 -97 98 0
x 1 2 4 5 -6 -7 -8 -9 12 -13 14 15 -18 19 -20 22 25 -30 -31 -32 34 -35 38 -40 -49 51 52 -53 54 56 -57 62 -63 -66 68 -71 -76 77 -78 80 82 83 -84 -85 86 -87 -89 90 91 -95 98 99 100 0
x -1 -2 3 -4 5 8 -10 11 -13 -15 16 17 18 -20 21 27 30 31 -32 33 -36 -39 -40 41 43 -46 48 49 -50 -51 -52 53 54 56 -57 59 -61 -64 -65 -67 68 -70 -71 74 76 -77 78 79 80 83 84 86 89 -91 94 97 100 0
x 1 -2 -4 9 -15 19 21 22 23 24 -25 26 -27 -33 -35 -38 40 42 44 -46 48 50 54 -58 -60 -61 -63 -65 66 67 -68 -75 77 -79 -80 -81 -84 -87 88 94 95 97 100 0
x 3 -4 6 7 8 -9 10 14 -16 -17 -18 20 -21 -23 -24 25 -26 -30 32 34 -37 -39 40 -41 42 43 -44 45 -46 48 -49 -50 54 -55 -56 -61 -63 -65 -67 68 -71 -78 -79 84 90 -91 -93 94 96 97 98 0
x 2 3 4 5 -8 9 -10 -12 14 17 19 20 -21 -25 -27 -28 -30 -32 -34 -36 -42 49 -50 -54 57 58 59 -61 64 -66 69 75 76 -77 78 80 83 86 -89 -91 94 -95 -97 -100 0
x 2 -3 4 5 -6 -7 8 12 13 -15 -16 17 22 -23 24 -29 32 -33 34 36 -37 38 -40 41 -44 -46 -49 -50 52 53 55 -56 57 -61 63 -65 -67 -68 -69 -71 -75 77 -78 82 -84 -86 -87 -88 90 -93 -94 -96 -97 -98 99 0
x 1 -3 5 -6 7 -8 -10 -11 15 -16 -17 -18 19 24 -25 -26 -28 29 -30 -33 35 -37 38 41 -43 48 -51 52 53 -54 -58 62 -63 -65 -66 68 69 70 -73 -74 -76 79 81 82 -86 88 89 91 92 -95 96 -98 -99 0
x -1 -2 -3 6 8 10 11 12 13 15 16 -17 18 19 -21 -22 24 25 -32 33 -35 37 38 39 41 44 45 -46 -47 -48 -50 -52 55 60 -62 65 -70 71 -73 -74 75 -77 78 81 82 -85 -86 -87 88 -89 -91 92 93 -94 95 97 98 -99 100 0
x 3 8 -9 10 -11 -15 -16 -20 -21 -22 -23 26 -28 29 -30 -32 -33 35 -38 39 43 -45 46 -48 -50 -51 54 55 -56 -57 -59 -60 -61 -63 -65 -67 -69 -71 -73 75 76 78 -79 -82 84 -88 -98 -99 0
x -2 -3 5 8 -9 10 -11 -13 -14 15 -19 23 -25 28 -32 -33 -36 -37 38 -40 43 45 -46 -52 -54 55 -58 -60 62 63 -64 67 -68 -70 -73 -75 76 -78 -79 81 -83 -84 85 86 92 -96 98 -99 0
x -1 -2 3 -4 5 9 -11 12 16 -18 -20 -22 -25 27 -30 -31 -33 -37 -38 -39 -40 -42 43 50 -52 54 56 57 -61 64 -65 66 -70 -71 72 -73 74 -75 -77 78 -82 86 93 -94 -96 97 99 0
x 1 3 -4 -6 -7 -8 -9 -10 -12 -13 -14 15 16 17 20 -22 -23 25 -26 27 28 29 -30 31 33 35 -38 39 -41 -43 -45 -46 -49 50 52 53 56 -59 61 -64 -65 66 68 -70 -71 -75 -77 -78 80 81 -82 -83 -85 88 91 -93 -96 -97 -100 0
x -1 -3 7 8 9 11 12 13 -15 17 19 -22 23 -24 -26 28 29 30 34 35 -37 -41 46 -51 52 56 57 60 61 -62 65 -68 69 -70 -72 -74 75 76 81 -82 -85 86 96 0
x 1 2 -3 -4 -5 7 9 10 -13 -15 17 -19 -20 21 24 26 35 36 -37 40 41 -43 -45 -47 48 -50 -55 -56 61 62 -64 -65 68 -72 -73 74 -77 -80 -82 -83 -84 86 -88 -92 93 95 96 98 0
x 1 2 4 5 -6 7 -9 11 -12 13 -14 -22 -24 25 26 28 -36 37 -38 40 43 -44 45 -46 -47 48 49 -51 -52 53 54 58 59 65 -66 67 68 69 -70 -71 73 -74 -78 79 82 83 84 -85 -86 90 91 92 93 95 -96 100 0
x -2 3 -4 5 6 7 -8 9 -11 -15 -16 17 18 -19 -20 -21 -22 -26 31 35 36 -37 -39 43 -48 -49 -52 -53 56 57 58 60 61 -65 67 68 69 71 -72 -73 74 -76 77 -78 -80 81 -85 86 -88 89 -90 -91 -94 95 97 -98 100 0
x -4 -7 11 13 14 15 16 17 21 -22 23 26 -27 -30 -33 -34 -36 -38 39 -40 -41 42 -43 -44 -45 -46 -47 -50 51 -52 53 -55 -56 59 61 -63 -69 72 -75 -79 -80 -81 84 -85 86 -87 -88 -89 -93 94 97 98 0
x 2 -4 -5 6 -9 10 11 -15 16 -20 -21 22 -25 26 -27 -28 29 -30 -32 -33 34 -38 39 -44 46 47 48 -51 -52 -54 56 59 64 65 66 67 -68 71 -72 73 -75 -76 -77 -79 -83 86 88 -89 93 -96 -98 0
x 1 2 -3 -5 7 -8 9 -12 13 14 17 -18 -20 25 29 31 32 35 36 37 -38 39 40 42 -46 -48 49 -50 -51 -52 -57 61 62 64 65 -66 -69 -70 -73 -78 -79 81 -82 -83 -84 87 88 -89 -90 -91 -92 -93 -95 96 0
x 2 -3 6 8 -9 -12 -15 16 19 -23 24 25 -28 -30 34 -36 -40 42 43 -44 -45 46 47 -48 -49 -50 -51 55 -58 -60 64 67 68 69 -70 71 -72 74 -76 -79 81 83 -88 -89 -92 -93 95 -100 0
x -1 3 9 12 14 16 21 22 23 -24 -28 -29 31 32 34 -36 -37 -41 -42 -43 47 48 -49 51 -52 53 54 -59 -62 65 66 -67 68 72 73 -76 77 79 -85 -86 -88 90 -91 -98 -99 0
g -30